# KALJ NVE, read data

atom_style atomic  
boundary p p p #periodic boundary cond. in each direction

read_data initconf_T05eq.data # read data file (incl.mass info)

## lj smooth cutoff
pair_style lj/smooth/linear 2.5
pair_coeff * * 1.0 1.0
pair_coeff 1 1 1.0 1.0 2.5 
pair_coeff * * 1.5 0.80
pair_coeff 1 2 1.5 0.80 2.0
pair_coeff * * 0.5 0.88
pair_coeff 2 2 0.5 0.88 2.2

timestep 0.0005 #Delta t 

neighbor          0.3 bin
neigh_modify      every 1 delay 0 check yes # Update neighbor
 
# print every 50 MD steps  positions and velocities into confdump.*.data files
dump mydump all custom 50000 ./ljsmoothlinear/confdump.*.data id type x y z vx vy vz
# dump myDump all custom 4 dump/dumpT${T}.NVT.atom.velocity id type xs ys zs vx vy vz
dump_modify mydump sort id

# set numerical integrator
fix nve1 all nve # NVE; default is velocity Verlet

run 500000000